\ENCODING=ISO-8859-1
\Problem name: IloCplex

Minimize
 obj1: 2 x_a_0 + 3 x_a_1 + x_a_2 + 3 x_a_3 + 3 x_a_4 + x_a_5 + x_a_6 + 3 x_a_7
       + x_a_8 + 2 x_a_9 + 2 x_a_10 + 2 x_a_11 + 3 x_a_12 + x_a_13 + 3 x_a_14
       + 3 x_a_15 + 2 x_a_16 + 2 x_a_17 + 2 x_a_18 + x_a_19 + 2 x_a_20
       + 2 x_a_21 + x_a_22 + 2 x_a_23 + 2 x_a_24 + 3 x_a_25 + 3 x_a_26
       + 3 x_a_27 + 2 x_a_28 + x_a_29 + x_a_30 + x_a_31 + x_a_32 + 3 x_a_33
       + x_a_34 + 2 x_a_35 + 2 x_a_36 + 2 x_a_37 + 3 x_a_38 + 2 x_a_39
       + 3 x_a_40 + 3 x_a_41 + 2 x_a_42 + 2 x_a_43 + 2 x_a_44 + 3 x_a_45
       + 2 x_a_46 + x_a_47 + x_a_48 + x_a_49 + 3 x_a_50 + x_a_51 + 3 x_a_52
       + x_a_53 + 3 x_a_54 + 2 x_a_55 + x_a_56 + x_a_57 + x_a_58 + x_a_59
       + 2 x_a_60 + 2 x_a_61 + 3 x_a_62 + 2 x_a_63 + 3 x_a_64 + 3 x_a_65
       + 2 x_a_66 + 2 x_a_67 + 3 x_a_68 + 2 x_a_69 + 3 x_a_70 + 3 x_a_71
       + 2 x_a_72 + x_a_73 + x_a_74 + 2 x_a_75 + x_a_76 + x_a_77 + 3 x_a_78
       + x_a_79 + x_a_80 + x_a_81 + x_a_82 + x_a_83 + 3 x_a_84 + x_a_85
       + 2 x_a_86 + x_a_87 + x_a_88 + 2 x_a_89 + 2 x_a_90 + x_a_91 + 3 x_a_92
       + x_a_93 + 3 x_a_94 + 2 x_a_95 + 3 x_a_96 + 2 x_a_97 + x_a_98 + 2 x_a_99
       + 2 x_a_100 + x_a_101 + 2 x_a_102 + 3 x_a_103 + 3 x_a_104 + 3 x_a_105
       + x_a_106 + x_a_107 + 3 x_a_108 + 3 x_a_109 + x_a_110 + 3 x_a_111
       + 3 x_a_112 + 3 x_a_113 + x_a_114 + 2 x_a_115 + 2 x_a_116 + x_a_117
       + x_a_118 + x_a_119 + 2 x_a_120 + x_a_121 + x_a_122 + 2 x_a_123
       + x_a_124 + x_a_125 + 2 x_a_126 + 3 x_a_127 + x_a_128 + 2 x_a_129
       + x_a_130 + x_a_131 + x_a_132 + x_a_133 + 3 x_a_134 + 2 x_a_135
       + x_a_136 + 2 x_a_137 + x_a_138 + 3 x_a_139 + 3 x_a_140 + 3 x_a_141
       + 3 x_a_142 + 2 x_a_143 + x_a_144 + x_a_145 + 3 x_a_146 + 2 x_a_147
       + 2 x_a_148 + x_a_149 + 3 x_a_150 + 3 x_a_151 + x_a_152 + x_a_153
       + x_a_154 + 2 x_a_155 + x_a_156 + 3 x_a_157 + x_a_158 + 3 x_a_159
       + 2 x_a_160 + 3 x_a_161 + 3 x_a_162 + x_a_163 + 3 x_a_164 + 2 x_a_165
       + 3 x_a_166 + 2 x_a_167 + 2 x_a_168 + 2 x_a_169 + 3 x_a_170 + 2 x_a_171
       + x_a_172 + 3 x_a_173 + x_a_174 + 2 x_a_175 + 2 x_a_176 + 2 x_a_177
       + 3 x_a_178 + 2 x_a_179 + 3 x_a_180 + x_a_181 + 2 x_a_182 + x_a_183
       + 2 x_a_184 + 2 x_a_185 + 2 x_a_186 + 3 x_a_187 + x_a_188 + x_a_189
       + x_a_190 + 3 x_a_191 + x_a_192 + x_a_193 + 3 x_a_194 + x_a_195
       + 3 x_a_196 + x_a_197 + 3 x_a_198 + x_a_199 + 2 x_a_200 + 2 x_a_201
       + 3 x_a_202 + 2 x_a_203 + 3 x_a_204 + x_a_205 + x_a_206 + 2 x_a_207
       + 2 x_a_208 + 2 x_a_209 + 2 x_a_210 + 3 x_a_211 + 2 x_a_212 + 2 x_a_213
       + x_a_214 + 2 x_a_215 + 2 x_a_216 + 2 x_a_217 + x_a_218 + 2 x_a_219
       + 2 x_a_220 + x_a_221 + 3 x_a_222 + 2 x_a_223 + x_a_224 + 3 x_a_225
       + x_a_226 + 3 x_a_227 + x_a_228 + 2 x_a_229 + 3 x_a_230 + 2 x_a_231
       + 2 x_a_232 + 2 x_a_233 + 2 x_a_234 + 2 x_a_235 + x_a_236 + 2 x_a_237
       + 2 x_a_238 + x_a_239 + 3 x_a_240 + 2 x_a_241 + 2 x_a_242 + 2 x_a_243
       + 2 x_a_244 + x_a_245 + 2 x_a_246 + 3 x_a_247 + 2 x_a_248 + 3 x_a_249
       + x_a_250 + x_a_251 + 2 x_a_252 + 2 x_a_253 + x_a_254 + 3 x_a_255
       + 3 x_a_256 + 3 x_a_257 + x_a_258 + 2 x_a_259 + 3 x_a_260 + 3 x_a_261
       + 3 x_a_262 + x_a_263 + 2 x_a_264 + 3 x_a_265 + 2 x_a_266 + 3 x_a_267
       + 3 x_a_268 + x_a_269 + 3 x_a_270 + 2 x_a_271 + 3 x_a_272 + x_a_273
       + x_a_274 + 3 x_a_275 + x_a_276 + 2 x_a_277 + 2 x_a_278 + 2 x_a_279
       + x_a_280 + 2 x_a_281 + x_a_282 + 2 x_a_283 + 3 x_a_284 + x_a_285
       + 3 x_a_286 + 2 x_a_287 + x_a_288 + 2 x_a_289 + x_a_290 + x_a_291
       + x_a_292 + 3 x_a_293 + 2 x_a_294 + 2 x_a_295 + 3 x_a_296 + 2 x_a_297
       + 2 x_a_298 + 3 x_a_299 + x_a_300 + 3 x_a_301 + 2 x_a_302 + x_a_303
       + 2 x_a_304 + 2 x_a_305 + 2 x_a_306 + 2 x_a_307 + 2 x_a_308 + 2 x_a_309
       + x_a_310 + x_a_311 + 3 x_a_312 + x_a_313 + 3 x_a_314 + 3 x_a_315
       + 3 x_a_316 + 3 x_a_317 + 3 x_a_318 + x_a_319 + x_a_320 + x_a_321
       + x_a_322 + 3 x_a_323 + 2 x_a_324 + 2 x_a_325 + 3 x_a_326 + 3 x_a_327
       + 2 x_a_328 + 3 x_a_329 + 2 x_a_330 + 3 x_a_331 + 3 x_a_332 + 3 x_a_333
       + 3 x_a_334 + 3 x_a_335 + x_a_336 + 3 x_a_337 + x_a_338 + x_a_339
       + 3 x_a_340 + 3 x_a_341 + x_a_342 + 2 x_a_343 + 3 x_a_344 + x_a_345
       + x_a_346 + 2 x_a_347 + x_a_348 + 3 x_a_349 + 2 x_a_350 + 2 x_a_351
       + 3 x_a_352 + 3 x_a_353 + 2 x_a_354 + x_a_355 + 3 x_a_356 + 3 x_a_357
       + 2 x_a_358 + x_a_359 + 3 x_a_360 + x_a_361 + 2 x_a_362 + 2 x_a_363
       + x_a_364 + x_a_365 + 3 x_a_366 + 1000000000 x_a_367
       + 1000000000 x_a_368 + 1000000000 x_a_369 + 1000000000 x_a_370
       + 1000000000 x_a_371 + 1000000000 x_a_372 + 1000000000 x_a_373
       + 1000000000 x_a_374 + 1000000000 x_a_375 + 1000000000 x_a_376
       + 1000000000 x_a_377 + 1000000000 x_a_378 + 1000000000 x_a_379
       + 1000000000 x_a_380 + 1000000000 x_a_381 + 1000000000 x_a_382
       + 10000 x_a_383
Subject To
 c1:   y_a_367 + y_a_368 + y_a_369 + y_a_370 + y_a_371 + y_a_372 + y_a_373
       + y_a_374 <= 453.6
 c2:   y_a_0 + y_a_1 + y_a_2 + y_a_3 + y_a_4 + y_a_5 + y_a_6 + y_a_7 + y_a_8
       + y_a_9 + y_a_10 + y_a_11 + y_a_12 + y_a_13 + y_a_14 + y_a_15 + y_a_16
       + y_a_17 + y_a_18 + y_a_19 + y_a_20 + y_a_21 + y_a_22 + y_a_23 + y_a_24
       + y_a_25  = 0
 c3:   - y_a_0 + y_a_26 + y_a_27 + y_a_28 + y_a_29 + y_a_30 + y_a_31 + y_a_32
       + y_a_33 + y_a_34 + y_a_35 + y_a_36 + y_a_37 + y_a_38 + y_a_39 + y_a_40
       + y_a_41 + y_a_42 + y_a_43 + y_a_44 + y_a_376  = 0
 c4:   - y_a_1 - y_a_26 + y_a_45 + y_a_46 + y_a_47 + y_a_48 + y_a_49 + y_a_50
       + y_a_51 + y_a_52 + y_a_53 + y_a_54 + y_a_55 + y_a_56 + y_a_57 + y_a_58
       + y_a_59 + y_a_60  = 0
 c5:   - y_a_372 - y_a_2 - y_a_27 - y_a_45 + y_a_61 + y_a_62 + y_a_63 + y_a_64
       + y_a_65 + y_a_66 + y_a_67 + y_a_68 + y_a_69 + y_a_70 + y_a_71 + y_a_72
       + y_a_73 + y_a_74 + y_a_75 + y_a_76  = 0
 c6:   - y_a_3 - y_a_28 - y_a_61 + y_a_77 + y_a_78 + y_a_79 + y_a_80 + y_a_81
       + y_a_82 + y_a_83 + y_a_84 + y_a_85 + y_a_86 + y_a_87 + y_a_88 + y_a_89
       + y_a_90 + y_a_91 + y_a_92 + y_a_93 + y_a_378  = 0
 c7:   - y_a_373 - y_a_46 - y_a_62 + y_a_94 + y_a_95 + y_a_96 + y_a_97 + y_a_98
       + y_a_99 + y_a_100 + y_a_101 + y_a_102 + y_a_103 + y_a_104 + y_a_105
       + y_a_106 + y_a_107  = 0
 c8:   - y_a_4 - y_a_29 - y_a_47 - y_a_63 - y_a_77 - y_a_94 + y_a_108 + y_a_109
       + y_a_110 + y_a_111 + y_a_112 + y_a_113 + y_a_114 + y_a_115 + y_a_116
       + y_a_117 + y_a_118 + y_a_119 + y_a_120 + y_a_121 + y_a_122 + y_a_123
        = 0
 c9:   - y_a_367 - y_a_48 - y_a_78 - y_a_108 + y_a_124 + y_a_125 + y_a_126
       + y_a_127 + y_a_128 + y_a_129 + y_a_130 + y_a_131 + y_a_132 + y_a_133
       + y_a_134 + y_a_135 + y_a_136 + y_a_137 + y_a_138  = 0
 c10:  - y_a_5 - y_a_109 + y_a_139 + y_a_140 + y_a_141 + y_a_142 + y_a_143
       + y_a_144 + y_a_145 + y_a_146 + y_a_147 + y_a_148 + y_a_149 + y_a_150
       + y_a_151 + y_a_152 + y_a_153 + y_a_154 + y_a_155  = 0
 c11:  - y_a_6 - y_a_95 - y_a_124 + y_a_156 + y_a_157 + y_a_158 + y_a_159
       + y_a_160 + y_a_161 + y_a_162 + y_a_163 + y_a_164 + y_a_165 + y_a_166
        = 0
 c12:  - y_a_30 - y_a_49 - y_a_125 + y_a_167 + y_a_168 + y_a_169 + y_a_170
       + y_a_171 + y_a_172 + y_a_173 + y_a_174 + y_a_175 + y_a_176 + y_a_177
       + y_a_178 + y_a_179 + y_a_180 + y_a_181 + y_a_182 + y_a_183 + y_a_184
        = 0
 c13:  - y_a_31 - y_a_79 - y_a_110 - y_a_126 - y_a_139 - y_a_167 + y_a_185
       + y_a_186 + y_a_187 + y_a_188 + y_a_189 + y_a_190 + y_a_191 + y_a_192
       + y_a_193 + y_a_194 + y_a_195 + y_a_196 + y_a_197 + y_a_198 + y_a_377
        = 0
 c14:  - y_a_7 - y_a_32 - y_a_64 - y_a_80 - y_a_111 - y_a_127 - y_a_156
       - y_a_168 + y_a_199 + y_a_200 + y_a_201 + y_a_202 + y_a_203 + y_a_204
       + y_a_205 + y_a_206 + y_a_207 + y_a_208 + y_a_209 + y_a_210 + y_a_211
       + y_a_212 + y_a_213 + y_a_214  = 0
 c15:  - y_a_81 - y_a_96 - y_a_185 - y_a_199 + y_a_215 + y_a_216 + y_a_217
       + y_a_218 + y_a_219 + y_a_220 + y_a_221 + y_a_222 + y_a_223  = 0
 c16:  - y_a_8 - y_a_33 - y_a_50 - y_a_82 - y_a_97 - y_a_128 - y_a_140
       - y_a_169 - y_a_200 - y_a_215 + y_a_224 + y_a_225 + y_a_226 + y_a_227
       + y_a_228 + y_a_229 + y_a_230 + y_a_231 + y_a_232 + y_a_233 + y_a_234
       + y_a_235  = 0
 c17:  - y_a_65 - y_a_98 - y_a_157 - y_a_170 - y_a_186 - y_a_224 + y_a_236
       + y_a_237 + y_a_238 + y_a_239 + y_a_240 + y_a_241 + y_a_242 + y_a_243
       + y_a_244 + y_a_245  = 0
 c18:  - y_a_9 - y_a_66 - y_a_83 - y_a_112 - y_a_141 - y_a_158 - y_a_171
       - y_a_187 - y_a_201 + y_a_246 + y_a_247 + y_a_248 + y_a_249 + y_a_250
       + y_a_251 + y_a_252 + y_a_253 + y_a_254  = 0
 c19:  - y_a_10 - y_a_34 - y_a_51 - y_a_99 - y_a_142 - y_a_159 - y_a_172
       - y_a_202 - y_a_225 + y_a_255 + y_a_256 + y_a_257 + y_a_258 + y_a_259
       + y_a_260 + y_a_261 + y_a_262 + y_a_263 + y_a_264 + y_a_265 + y_a_379
       + y_a_381  = 0
 c20:  - y_a_11 - y_a_35 - y_a_84 - y_a_113 - y_a_129 - y_a_143 - y_a_173
       - y_a_188 - y_a_216 - y_a_226 - y_a_236 - y_a_255 + y_a_266 + y_a_267
       + y_a_268 + y_a_269 + y_a_270 + y_a_271 + y_a_272 + y_a_273 + y_a_274
        = 0
 c21:  - y_a_369 - y_a_12 - y_a_36 - y_a_52 - y_a_67 - y_a_114 - y_a_144
       - y_a_174 + y_a_275 + y_a_276 + y_a_277 + y_a_278 + y_a_279 + y_a_280
       + y_a_281 + y_a_282 + y_a_283 + y_a_284 + y_a_285 + y_a_286  = 0
 c22:  - y_a_13 - y_a_68 - y_a_115 - y_a_130 - y_a_145 - y_a_189 - y_a_203
       - y_a_217 - y_a_227 - y_a_256 - y_a_266 - y_a_275 + y_a_287 + y_a_288
       + y_a_289 + y_a_290 + y_a_291 + y_a_292 + y_a_293 + y_a_294 + y_a_295
        = 0
 c23:  - y_a_371 - y_a_37 - y_a_85 - y_a_100 - y_a_131 - y_a_146 - y_a_190
       - y_a_237 - y_a_246 - y_a_287 + y_a_296 + y_a_297 + y_a_298 + y_a_299
       + y_a_300 + y_a_301  = 0
 c24:  - y_a_14 - y_a_69 - y_a_86 - y_a_132 - y_a_175 - y_a_204 - y_a_218
       - y_a_247 - y_a_267 - y_a_288 + y_a_302 + y_a_303 + y_a_304 + y_a_305
       + y_a_306 + y_a_307 + y_a_308 + y_a_309  = 0
 c25:  - y_a_374 - y_a_15 - y_a_53 - y_a_87 - y_a_133 - y_a_147 - y_a_160
       - y_a_176 - y_a_205 - y_a_238 - y_a_248 - y_a_257 - y_a_276 - y_a_296
       - y_a_302 + y_a_310 + y_a_311 + y_a_312 + y_a_313 + y_a_314 + y_a_315
       + y_a_316 + y_a_317  = 0
 c26:  - y_a_16 - y_a_54 - y_a_70 - y_a_148 - y_a_206 - y_a_219 - y_a_228
       - y_a_249 - y_a_268 - y_a_277 - y_a_310 + y_a_318 + y_a_319 + y_a_320
       + y_a_321 + y_a_322 + y_a_323 + y_a_324 + y_a_325  = 0
 c27:  - y_a_17 - y_a_38 - y_a_55 - y_a_88 - y_a_101 - y_a_149 - y_a_177
       - y_a_207 - y_a_229 - y_a_250 - y_a_258 - y_a_278 - y_a_289 - y_a_303
       - y_a_311 - y_a_318 + y_a_326 + y_a_327 + y_a_328 + y_a_329 + y_a_330
       + y_a_331 + y_a_332  = 0
 c28:  - y_a_39 - y_a_71 - y_a_89 - y_a_116 - y_a_161 - y_a_178 - y_a_208
       - y_a_239 - y_a_269 - y_a_279 - y_a_304 - y_a_312 - y_a_319 - y_a_326
       + y_a_333 + y_a_334 + y_a_335 + y_a_336 + y_a_337  = 0
 c29:  - y_a_18 - y_a_40 - y_a_90 - y_a_102 - y_a_117 - y_a_134 - y_a_179
       - y_a_191 - y_a_209 - y_a_220 - y_a_240 - y_a_259 - y_a_270 - y_a_305
       - y_a_313 + y_a_338 + y_a_339 + y_a_340 + y_a_341 + y_a_342 + y_a_375
       + y_a_382  = 0
 c30:  - y_a_370 - y_a_19 - y_a_41 - y_a_103 - y_a_118 - y_a_135 - y_a_162
       - y_a_180 - y_a_192 - y_a_210 - y_a_230 - y_a_271 - y_a_280 - y_a_297
       - y_a_320 - y_a_327 - y_a_333 - y_a_338 + y_a_343 + y_a_344 + y_a_345
       + y_a_346 + y_a_347 + y_a_348 + y_a_349  = 0
 c31:  - y_a_20 - y_a_56 - y_a_119 - y_a_136 - y_a_150 - y_a_163 - y_a_181
       - y_a_211 - y_a_231 - y_a_241 - y_a_251 - y_a_281 - y_a_290 - y_a_298
       - y_a_314 - y_a_321 - y_a_328 - y_a_339 - y_a_343 + y_a_350 + y_a_351
       + y_a_352  = 0
 c32:  - y_a_21 - y_a_72 - y_a_104 - y_a_151 - y_a_232 - y_a_252 - y_a_260
       - y_a_272 - y_a_282 - y_a_291 - y_a_306 - y_a_334 - y_a_340 - y_a_350
       + y_a_353 + y_a_354 + y_a_355 + y_a_356 + y_a_380  = 0
 c33:  - y_a_57 - y_a_91 - y_a_105 - y_a_152 - y_a_164 - y_a_193 - y_a_212
       - y_a_261 - y_a_273 - y_a_283 - y_a_292 - y_a_307 - y_a_315 - y_a_329
       - y_a_344 - y_a_351 - y_a_353 + y_a_357 + y_a_358 + y_a_359 + y_a_360
        = 0
 c34:  - y_a_368 - y_a_22 - y_a_42 - y_a_73 - y_a_92 - y_a_120 - y_a_153
       - y_a_165 - y_a_213 - y_a_274 - y_a_284 - y_a_316 - y_a_322 - y_a_330
       - y_a_335 - y_a_341 - y_a_354 + y_a_361 + y_a_362  = 0
 c35:  - y_a_23 - y_a_58 - y_a_74 - y_a_93 - y_a_137 - y_a_166 - y_a_194
       - y_a_221 - y_a_233 - y_a_242 - y_a_253 - y_a_293 - y_a_299 - y_a_308
       - y_a_323 - y_a_342 - y_a_345 - y_a_352 + y_a_363  = 0
 c36:  - y_a_24 - y_a_59 - y_a_75 - y_a_106 - y_a_121 - y_a_154 - y_a_182
       - y_a_195 - y_a_214 - y_a_222 - y_a_234 - y_a_243 - y_a_254 - y_a_262
       - y_a_285 - y_a_324 - y_a_336 - y_a_346 - y_a_357 + y_a_364 + y_a_365
        = 0
 c37:  - y_a_25 - y_a_43 - y_a_60 - y_a_76 - y_a_122 - y_a_155 - y_a_183
       - y_a_196 - y_a_223 - y_a_235 - y_a_244 - y_a_263 - y_a_294 - y_a_300
       - y_a_309 - y_a_331 - y_a_347 - y_a_355 - y_a_358 - y_a_363 - y_a_364
       + y_a_366  = 0
 c38:  - y_a_44 - y_a_107 - y_a_184 - y_a_197 - y_a_245 - y_a_264 - y_a_286
       - y_a_317 - y_a_348 - y_a_356 - y_a_359 - y_a_361 - y_a_365 - y_a_366
        = 0
 c39:  - y_a_123 - y_a_138 - y_a_198 - y_a_265 - y_a_295 - y_a_301 - y_a_325
       - y_a_332 - y_a_337 - y_a_349 - y_a_360 - y_a_362  = 0
 c40:  y_a_367 + y_a_368 + y_a_369 + y_a_370 + y_a_371 + y_a_372 + y_a_373
       + y_a_374 - y_a_383  = 0
 c41:  - y_a_376 - y_a_378 - y_a_377 - y_a_379 - y_a_381 - y_a_375 - y_a_382
       - y_a_380 + y_a_383  = 0
 c42:  y_a_0 + 22 x_a_0 <= 22
 c43:  y_a_1 + 24 x_a_1 <= 24
 c44:  y_a_2 + 35 x_a_2 <= 35
 c45:  y_a_3 + 12 x_a_3 <= 12
 c46:  y_a_4 + 5 x_a_4 <= 5
 c47:  y_a_5 + 35 x_a_5 <= 35
 c48:  y_a_6 + 11 x_a_6 <= 11
 c49:  y_a_7 + 35 x_a_7 <= 35
 c50:  y_a_8 + 23 x_a_8 <= 23
 c51:  y_a_9 + 18 x_a_9 <= 18
 c52:  y_a_10 + 23 x_a_10 <= 23
 c53:  y_a_11 + 23 x_a_11 <= 23
 c54:  y_a_12 + 8 x_a_12 <= 8
 c55:  y_a_13 + 6 x_a_13 <= 6
 c56:  y_a_14 + 4 x_a_14 <= 4
 c57:  y_a_15 + 41 x_a_15 <= 41
 c58:  y_a_16 + 4 x_a_16 <= 4
 c59:  y_a_17 + 41 x_a_17 <= 41
 c60:  y_a_18 + 10 x_a_18 <= 10
 c61:  y_a_19 + 28 x_a_19 <= 28
 c62:  y_a_20 + 38 x_a_20 <= 38
 c63:  y_a_21 + 15 x_a_21 <= 15
 c64:  y_a_22 + 9 x_a_22 <= 9
 c65:  y_a_23 + 20 x_a_23 <= 20
 c66:  y_a_24 + 20 x_a_24 <= 20
 c67:  y_a_25 + 8 x_a_25 <= 8
 c68:  y_a_26 + 23 x_a_26 <= 23
 c69:  y_a_27 + 11 x_a_27 <= 11
 c70:  y_a_28 + 12 x_a_28 <= 12
 c71:  y_a_29 + 16 x_a_29 <= 16
 c72:  y_a_30 + 4 x_a_30 <= 4
 c73:  y_a_31 + 36 x_a_31 <= 36
 c74:  y_a_32 + 34 x_a_32 <= 34
 c75:  y_a_33 + 2 x_a_33 <= 2
 c76:  y_a_34 + 42 x_a_34 <= 42
 c77:  y_a_35 + 23 x_a_35 <= 23
 c78:  y_a_36 + 14 x_a_36 <= 14
 c79:  y_a_37 + 17 x_a_37 <= 17
 c80:  y_a_38 + 24 x_a_38 <= 24
 c81:  y_a_39 + 14 x_a_39 <= 14
 c82:  y_a_40 + 27 x_a_40 <= 27
 c83:  y_a_41 + 48 x_a_41 <= 48
 c84:  y_a_42 + 33 x_a_42 <= 33
 c85:  y_a_43 + 7 x_a_43 <= 7
 c86:  y_a_44 + 3 x_a_44 <= 3
 c87:  y_a_45 + 19 x_a_45 <= 19
 c88:  y_a_46 + 4 x_a_46 <= 4
 c89:  y_a_47 + 12 x_a_47 <= 12
 c90:  y_a_48 + 3 x_a_48 <= 3
 c91:  y_a_49 + 32 x_a_49 <= 32
 c92:  y_a_50 + 35 x_a_50 <= 35
 c93:  y_a_51 + 35 x_a_51 <= 35
 c94:  y_a_52 + 21 x_a_52 <= 21
 c95:  y_a_53 + 21 x_a_53 <= 21
 c96:  y_a_54 + 47 x_a_54 <= 47
 c97:  y_a_55 + 32 x_a_55 <= 32
 c98:  y_a_56 + 35 x_a_56 <= 35
 c99:  y_a_57 + 38 x_a_57 <= 38
 c100: y_a_58 + 46 x_a_58 <= 46
 c101: y_a_59 + 45 x_a_59 <= 45
 c102: y_a_60 + 27 x_a_60 <= 27
 c103: y_a_61 + x_a_61 <= 1
 c104: y_a_62 + 28 x_a_62 <= 28
 c105: y_a_63 + 12 x_a_63 <= 12
 c106: y_a_64 + 7 x_a_64 <= 7
 c107: y_a_65 + 18 x_a_65 <= 18
 c108: y_a_66 + 9 x_a_66 <= 9
 c109: y_a_67 + 6 x_a_67 <= 6
 c110: y_a_68 + 8 x_a_68 <= 8
 c111: y_a_69 + 44 x_a_69 <= 44
 c112: y_a_70 + 5 x_a_70 <= 5
 c113: y_a_71 + 19 x_a_71 <= 19
 c114: y_a_72 + 9 x_a_72 <= 9
 c115: y_a_73 + 22 x_a_73 <= 22
 c116: y_a_74 + 10 x_a_74 <= 10
 c117: y_a_75 + 15 x_a_75 <= 15
 c118: y_a_76 + 36 x_a_76 <= 36
 c119: y_a_77 + 10 x_a_77 <= 10
 c120: y_a_78 + 48 x_a_78 <= 48
 c121: y_a_79 + 5 x_a_79 <= 5
 c122: y_a_80 + 14 x_a_80 <= 14
 c123: y_a_81 + 14 x_a_81 <= 14
 c124: y_a_82 + 48 x_a_82 <= 48
 c125: y_a_83 + 5 x_a_83 <= 5
 c126: y_a_84 + 9 x_a_84 <= 9
 c127: y_a_85 + 32 x_a_85 <= 32
 c128: y_a_86 + 25 x_a_86 <= 25
 c129: y_a_87 + 16 x_a_87 <= 16
 c130: y_a_88 + 44 x_a_88 <= 44
 c131: y_a_89 + 9 x_a_89 <= 9
 c132: y_a_90 + 40 x_a_90 <= 40
 c133: y_a_91 + 8 x_a_91 <= 8
 c134: y_a_92 + x_a_92 <= 1
 c135: y_a_93 + 17 x_a_93 <= 17
 c136: y_a_94 + 46 x_a_94 <= 46
 c137: y_a_95 + 35 x_a_95 <= 35
 c138: y_a_96 + 27 x_a_96 <= 27
 c139: y_a_97 + 6 x_a_97 <= 6
 c140: y_a_98 + 17 x_a_98 <= 17
 c141: y_a_99 + 3 x_a_99 <= 3
 c142: y_a_100 + 30 x_a_100 <= 30
 c143: y_a_101 + 24 x_a_101 <= 24
 c144: y_a_102 + 35 x_a_102 <= 35
 c145: y_a_103 + 17 x_a_103 <= 17
 c146: y_a_104 + 20 x_a_104 <= 20
 c147: y_a_105 + 4 x_a_105 <= 4
 c148: y_a_106 + 21 x_a_106 <= 21
 c149: y_a_107 + 5 x_a_107 <= 5
 c150: y_a_108 + 33 x_a_108 <= 33
 c151: y_a_109 + 11 x_a_109 <= 11
 c152: y_a_110 + 24 x_a_110 <= 24
 c153: y_a_111 + 46 x_a_111 <= 46
 c154: y_a_112 + 10 x_a_112 <= 10
 c155: y_a_113 + 3 x_a_113 <= 3
 c156: y_a_114 + 13 x_a_114 <= 13
 c157: y_a_115 + 34 x_a_115 <= 34
 c158: y_a_116 + 31 x_a_116 <= 31
 c159: y_a_117 + 25 x_a_117 <= 25
 c160: y_a_118 + 21 x_a_118 <= 21
 c161: y_a_119 + 23 x_a_119 <= 23
 c162: y_a_120 + 22 x_a_120 <= 22
 c163: y_a_121 + 14 x_a_121 <= 14
 c164: y_a_122 + 17 x_a_122 <= 17
 c165: y_a_123 + 34 x_a_123 <= 34
 c166: y_a_124 + 16 x_a_124 <= 16
 c167: y_a_125 + 25 x_a_125 <= 25
 c168: y_a_126 + 28 x_a_126 <= 28
 c169: y_a_127 + 29 x_a_127 <= 29
 c170: y_a_128 + 3 x_a_128 <= 3
 c171: y_a_129 + 46 x_a_129 <= 46
 c172: y_a_130 + 7 x_a_130 <= 7
 c173: y_a_131 + 38 x_a_131 <= 38
 c174: y_a_132 + 12 x_a_132 <= 12
 c175: y_a_133 + 15 x_a_133 <= 15
 c176: y_a_134 + 49 x_a_134 <= 49
 c177: y_a_135 + 32 x_a_135 <= 32
 c178: y_a_136 + 33 x_a_136 <= 33
 c179: y_a_137 + 35 x_a_137 <= 35
 c180: y_a_138 + 48 x_a_138 <= 48
 c181: y_a_139 + 28 x_a_139 <= 28
 c182: y_a_140 + 4 x_a_140 <= 4
 c183: y_a_141 + 40 x_a_141 <= 40
 c184: y_a_142 + 9 x_a_142 <= 9
 c185: y_a_143 + 49 x_a_143 <= 49
 c186: y_a_144 + 20 x_a_144 <= 20
 c187: y_a_145 + 8 x_a_145 <= 8
 c188: y_a_146 + 32 x_a_146 <= 32
 c189: y_a_147 + 49 x_a_147 <= 49
 c190: y_a_148 + 25 x_a_148 <= 25
 c191: y_a_149 + 20 x_a_149 <= 20
 c192: y_a_150 + 13 x_a_150 <= 13
 c193: y_a_151 + 27 x_a_151 <= 27
 c194: y_a_152 + 37 x_a_152 <= 37
 c195: y_a_153 + 46 x_a_153 <= 46
 c196: y_a_154 + 35 x_a_154 <= 35
 c197: y_a_155 + 20 x_a_155 <= 20
 c198: y_a_156 + 15 x_a_156 <= 15
 c199: y_a_157 + 12 x_a_157 <= 12
 c200: y_a_158 + 6 x_a_158 <= 6
 c201: y_a_159 + 15 x_a_159 <= 15
 c202: y_a_160 + 17 x_a_160 <= 17
 c203: y_a_161 + 30 x_a_161 <= 30
 c204: y_a_162 + 4 x_a_162 <= 4
 c205: y_a_163 + 37 x_a_163 <= 37
 c206: y_a_164 + 29 x_a_164 <= 29
 c207: y_a_165 + 34 x_a_165 <= 34
 c208: y_a_166 + 47 x_a_166 <= 47
 c209: y_a_167 + 11 x_a_167 <= 11
 c210: y_a_168 + 25 x_a_168 <= 25
 c211: y_a_169 + 10 x_a_169 <= 10
 c212: y_a_170 + 9 x_a_170 <= 9
 c213: y_a_171 + 18 x_a_171 <= 18
 c214: y_a_172 + 8 x_a_172 <= 8
 c215: y_a_173 + 23 x_a_173 <= 23
 c216: y_a_174 + 13 x_a_174 <= 13
 c217: y_a_175 + 44 x_a_175 <= 44
 c218: y_a_176 + 3 x_a_176 <= 3
 c219: y_a_177 + 34 x_a_177 <= 34
 c220: y_a_178 + 45 x_a_178 <= 45
 c221: y_a_179 + 6 x_a_179 <= 6
 c222: y_a_180 + 39 x_a_180 <= 39
 c223: y_a_181 + 16 x_a_181 <= 16
 c224: y_a_182 + 38 x_a_182 <= 38
 c225: y_a_183 + 19 x_a_183 <= 19
 c226: y_a_184 + 19 x_a_184 <= 19
 c227: y_a_185 + 12 x_a_185 <= 12
 c228: y_a_186 + 10 x_a_186 <= 10
 c229: y_a_187 + 23 x_a_187 <= 23
 c230: y_a_188 + 5 x_a_188 <= 5
 c231: y_a_189 + 10 x_a_189 <= 10
 c232: y_a_190 + 36 x_a_190 <= 36
 c233: y_a_191 + 17 x_a_191 <= 17
 c234: y_a_192 + 20 x_a_192 <= 20
 c235: y_a_193 + 36 x_a_193 <= 36
 c236: y_a_194 + 35 x_a_194 <= 35
 c237: y_a_195 + 3 x_a_195 <= 3
 c238: y_a_196 + 8 x_a_196 <= 8
 c239: y_a_197 + x_a_197 <= 1
 c240: y_a_198 + 20 x_a_198 <= 20
 c241: y_a_199 + 30 x_a_199 <= 30
 c242: y_a_200 + 15 x_a_200 <= 15
 c243: y_a_201 + 2 x_a_201 <= 2
 c244: y_a_202 + 4 x_a_202 <= 4
 c245: y_a_203 + 33 x_a_203 <= 33
 c246: y_a_204 + 5 x_a_204 <= 5
 c247: y_a_205 + 25 x_a_205 <= 25
 c248: y_a_206 + 8 x_a_206 <= 8
 c249: y_a_207 + 10 x_a_207 <= 10
 c250: y_a_208 + 21 x_a_208 <= 21
 c251: y_a_209 + 29 x_a_209 <= 29
 c252: y_a_210 + 22 x_a_210 <= 22
 c253: y_a_211 + 32 x_a_211 <= 32
 c254: y_a_212 + 2 x_a_212 <= 2
 c255: y_a_213 + 37 x_a_213 <= 37
 c256: y_a_214 + 3 x_a_214 <= 3
 c257: y_a_215 + 4 x_a_215 <= 4
 c258: y_a_216 + 9 x_a_216 <= 9
 c259: y_a_217 + 27 x_a_217 <= 27
 c260: y_a_218 + 49 x_a_218 <= 49
 c261: y_a_219 + 25 x_a_219 <= 25
 c262: y_a_220 + 16 x_a_220 <= 16
 c263: y_a_221 + 33 x_a_221 <= 33
 c264: y_a_222 + 45 x_a_222 <= 45
 c265: y_a_223 + 39 x_a_223 <= 39
 c266: y_a_224 + 13 x_a_224 <= 13
 c267: y_a_225 + 18 x_a_225 <= 18
 c268: y_a_226 + 25 x_a_226 <= 25
 c269: y_a_227 + 12 x_a_227 <= 12
 c270: y_a_228 + 48 x_a_228 <= 48
 c271: y_a_229 + 45 x_a_229 <= 45
 c272: y_a_230 + 13 x_a_230 <= 13
 c273: y_a_231 + 12 x_a_231 <= 12
 c274: y_a_232 + 27 x_a_232 <= 27
 c275: y_a_233 + 28 x_a_233 <= 28
 c276: y_a_234 + 26 x_a_234 <= 26
 c277: y_a_235 + 30 x_a_235 <= 30
 c278: y_a_236 + 38 x_a_236 <= 38
 c279: y_a_237 + 18 x_a_237 <= 18
 c280: y_a_238 + 44 x_a_238 <= 44
 c281: y_a_239 + 8 x_a_239 <= 8
 c282: y_a_240 + 5 x_a_240 <= 5
 c283: y_a_241 + 4 x_a_241 <= 4
 c284: y_a_242 + 27 x_a_242 <= 27
 c285: y_a_243 + 45 x_a_243 <= 45
 c286: y_a_244 + 30 x_a_244 <= 30
 c287: y_a_245 + 40 x_a_245 <= 40
 c288: y_a_246 + 44 x_a_246 <= 44
 c289: y_a_247 + 17 x_a_247 <= 17
 c290: y_a_248 + 22 x_a_248 <= 22
 c291: y_a_249 + 41 x_a_249 <= 41
 c292: y_a_250 + 31 x_a_250 <= 31
 c293: y_a_251 + 44 x_a_251 <= 44
 c294: y_a_252 + 32 x_a_252 <= 32
 c295: y_a_253 + 18 x_a_253 <= 18
 c296: y_a_254 + 27 x_a_254 <= 27
 c297: y_a_255 + 40 x_a_255 <= 40
 c298: y_a_256 + 2 x_a_256 <= 2
 c299: y_a_257 + 36 x_a_257 <= 36
 c300: y_a_258 + 15 x_a_258 <= 15
 c301: y_a_259 + 45 x_a_259 <= 45
 c302: y_a_260 + 38 x_a_260 <= 38
 c303: y_a_261 + 30 x_a_261 <= 30
 c304: y_a_262 + 8 x_a_262 <= 8
 c305: y_a_263 + 12 x_a_263 <= 12
 c306: y_a_264 + 40 x_a_264 <= 40
 c307: y_a_265 + 30 x_a_265 <= 30
 c308: y_a_266 + 31 x_a_266 <= 31
 c309: y_a_267 + 48 x_a_267 <= 48
 c310: y_a_268 + 48 x_a_268 <= 48
 c311: y_a_269 + 49 x_a_269 <= 49
 c312: y_a_270 + 21 x_a_270 <= 21
 c313: y_a_271 + 2 x_a_271 <= 2
 c314: y_a_272 + 5 x_a_272 <= 5
 c315: y_a_273 + 43 x_a_273 <= 43
 c316: y_a_274 + x_a_274 <= 1
 c317: y_a_275 + 3 x_a_275 <= 3
 c318: y_a_276 + 13 x_a_276 <= 13
 c319: y_a_277 + 15 x_a_277 <= 15
 c320: y_a_278 + 46 x_a_278 <= 46
 c321: y_a_279 + 28 x_a_279 <= 28
 c322: y_a_280 + 40 x_a_280 <= 40
 c323: y_a_281 + 16 x_a_281 <= 16
 c324: y_a_282 + 2 x_a_282 <= 2
 c325: y_a_283 + 21 x_a_283 <= 21
 c326: y_a_284 + 8 x_a_284 <= 8
 c327: y_a_285 + 20 x_a_285 <= 20
 c328: y_a_286 + 14 x_a_286 <= 14
 c329: y_a_287 + 44 x_a_287 <= 44
 c330: y_a_288 + 18 x_a_288 <= 18
 c331: y_a_289 + 38 x_a_289 <= 38
 c332: y_a_290 + 13 x_a_290 <= 13
 c333: y_a_291 + 36 x_a_291 <= 36
 c334: y_a_292 + 42 x_a_292 <= 42
 c335: y_a_293 + 15 x_a_293 <= 15
 c336: y_a_294 + 47 x_a_294 <= 47
 c337: y_a_295 + 48 x_a_295 <= 48
 c338: y_a_296 + 8 x_a_296 <= 8
 c339: y_a_297 + 2 x_a_297 <= 2
 c340: y_a_298 + 30 x_a_298 <= 30
 c341: y_a_299 + 6 x_a_299 <= 6
 c342: y_a_300 + 48 x_a_300 <= 48
 c343: y_a_301 + 23 x_a_301 <= 23
 c344: y_a_302 + 30 x_a_302 <= 30
 c345: y_a_303 + 11 x_a_303 <= 11
 c346: y_a_304 + 34 x_a_304 <= 34
 c347: y_a_305 + 38 x_a_305 <= 38
 c348: y_a_306 + 9 x_a_306 <= 9
 c349: y_a_307 + 32 x_a_307 <= 32
 c350: y_a_308 + 16 x_a_308 <= 16
 c351: y_a_309 + 41 x_a_309 <= 41
 c352: y_a_310 + 10 x_a_310 <= 10
 c353: y_a_311 + 28 x_a_311 <= 28
 c354: y_a_312 + 32 x_a_312 <= 32
 c355: y_a_313 + 25 x_a_313 <= 25
 c356: y_a_314 + 2 x_a_314 <= 2
 c357: y_a_315 + 25 x_a_315 <= 25
 c358: y_a_316 + 45 x_a_316 <= 45
 c359: y_a_317 + 23 x_a_317 <= 23
 c360: y_a_318 + 47 x_a_318 <= 47
 c361: y_a_319 + 42 x_a_319 <= 42
 c362: y_a_320 + 32 x_a_320 <= 32
 c363: y_a_321 + 41 x_a_321 <= 41
 c364: y_a_322 + 25 x_a_322 <= 25
 c365: y_a_323 + 14 x_a_323 <= 14
 c366: y_a_324 + 2 x_a_324 <= 2
 c367: y_a_325 + 38 x_a_325 <= 38
 c368: y_a_326 + 32 x_a_326 <= 32
 c369: y_a_327 + 44 x_a_327 <= 44
 c370: y_a_328 + 8 x_a_328 <= 8
 c371: y_a_329 + 12 x_a_329 <= 12
 c372: y_a_330 + 30 x_a_330 <= 30
 c373: y_a_331 + 16 x_a_331 <= 16
 c374: y_a_332 + 38 x_a_332 <= 38
 c375: y_a_333 + 2 x_a_333 <= 2
 c376: y_a_334 + 13 x_a_334 <= 13
 c377: y_a_335 + 10 x_a_335 <= 10
 c378: y_a_336 + 12 x_a_336 <= 12
 c379: y_a_337 + 29 x_a_337 <= 29
 c380: y_a_338 + 30 x_a_338 <= 30
 c381: y_a_339 + 35 x_a_339 <= 35
 c382: y_a_340 + 30 x_a_340 <= 30
 c383: y_a_341 + 32 x_a_341 <= 32
 c384: y_a_342 + 15 x_a_342 <= 15
 c385: y_a_343 + 46 x_a_343 <= 46
 c386: y_a_344 + 7 x_a_344 <= 7
 c387: y_a_345 + 3 x_a_345 <= 3
 c388: y_a_346 + 3 x_a_346 <= 3
 c389: y_a_347 + 49 x_a_347 <= 49
 c390: y_a_348 + 29 x_a_348 <= 29
 c391: y_a_349 + 40 x_a_349 <= 40
 c392: y_a_350 + 13 x_a_350 <= 13
 c393: y_a_351 + 28 x_a_351 <= 28
 c394: y_a_352 + 29 x_a_352 <= 29
 c395: y_a_353 + 34 x_a_353 <= 34
 c396: y_a_354 + 26 x_a_354 <= 26
 c397: y_a_355 + 19 x_a_355 <= 19
 c398: y_a_356 + 46 x_a_356 <= 46
 c399: y_a_357 + 24 x_a_357 <= 24
 c400: y_a_358 + 27 x_a_358 <= 27
 c401: y_a_359 + 31 x_a_359 <= 31
 c402: y_a_360 + 46 x_a_360 <= 46
 c403: y_a_361 + 17 x_a_361 <= 17
 c404: y_a_362 + 19 x_a_362 <= 19
 c405: y_a_363 + 8 x_a_363 <= 8
 c406: y_a_364 + 30 x_a_364 <= 30
 c407: y_a_365 + 13 x_a_365 <= 13
 c408: y_a_366 + 32 x_a_366 <= 32
 c409: y_a_367 + 50000000 x_a_367 <= 50000000
 c410: y_a_368 + 50000000 x_a_368 <= 50000000
 c411: y_a_369 + 50000000 x_a_369 <= 50000000
 c412: y_a_370 + 50000000 x_a_370 <= 50000000
 c413: y_a_371 + 50000000 x_a_371 <= 50000000
 c414: y_a_372 + 50000000 x_a_372 <= 50000000
 c415: y_a_373 + 50000000 x_a_373 <= 50000000
 c416: y_a_374 + 50000000 x_a_374 <= 50000000
 c417: y_a_375 + 50000000 x_a_375 <= 50000000
 c418: y_a_376 + 50000000 x_a_376 <= 50000000
 c419: y_a_377 + 50000000 x_a_377 <= 50000000
 c420: y_a_378 + 50000000 x_a_378 <= 50000000
 c421: y_a_379 + 50000000 x_a_379 <= 50000000
 c422: y_a_380 + 50000000 x_a_380 <= 50000000
 c423: y_a_381 + 50000000 x_a_381 <= 50000000
 c424: y_a_382 + 50000000 x_a_382 <= 50000000
 c425: y_a_383 + 10000 x_a_383 <= 10000
Bounds
 0 <= x_a_0 <= 1
 0 <= x_a_1 <= 1
 0 <= x_a_2 <= 1
 0 <= x_a_3 <= 1
 0 <= x_a_4 <= 1
 0 <= x_a_5 <= 1
 0 <= x_a_6 <= 1
 0 <= x_a_7 <= 1
 0 <= x_a_8 <= 1
 0 <= x_a_9 <= 1
 0 <= x_a_10 <= 1
 0 <= x_a_11 <= 1
 0 <= x_a_12 <= 1
 0 <= x_a_13 <= 1
 0 <= x_a_14 <= 1
 0 <= x_a_15 <= 1
 0 <= x_a_16 <= 1
 0 <= x_a_17 <= 1
 0 <= x_a_18 <= 1
 0 <= x_a_19 <= 1
 0 <= x_a_20 <= 1
 0 <= x_a_21 <= 1
 0 <= x_a_22 <= 1
 0 <= x_a_23 <= 1
 0 <= x_a_24 <= 1
 0 <= x_a_25 <= 1
 0 <= x_a_26 <= 1
 0 <= x_a_27 <= 1
 0 <= x_a_28 <= 1
 0 <= x_a_29 <= 1
 0 <= x_a_30 <= 1
 0 <= x_a_31 <= 1
 0 <= x_a_32 <= 1
 0 <= x_a_33 <= 1
 0 <= x_a_34 <= 1
 0 <= x_a_35 <= 1
 0 <= x_a_36 <= 1
 0 <= x_a_37 <= 1
 0 <= x_a_38 <= 1
 0 <= x_a_39 <= 1
 0 <= x_a_40 <= 1
 0 <= x_a_41 <= 1
 0 <= x_a_42 <= 1
 0 <= x_a_43 <= 1
 0 <= x_a_44 <= 1
 0 <= x_a_45 <= 1
 0 <= x_a_46 <= 1
 0 <= x_a_47 <= 1
 0 <= x_a_48 <= 1
 0 <= x_a_49 <= 1
 0 <= x_a_50 <= 1
 0 <= x_a_51 <= 1
 0 <= x_a_52 <= 1
 0 <= x_a_53 <= 1
 0 <= x_a_54 <= 1
 0 <= x_a_55 <= 1
 0 <= x_a_56 <= 1
 0 <= x_a_57 <= 1
 0 <= x_a_58 <= 1
 0 <= x_a_59 <= 1
 0 <= x_a_60 <= 1
 0 <= x_a_61 <= 1
 0 <= x_a_62 <= 1
 0 <= x_a_63 <= 1
 0 <= x_a_64 <= 1
 0 <= x_a_65 <= 1
 0 <= x_a_66 <= 1
 0 <= x_a_67 <= 1
 0 <= x_a_68 <= 1
 0 <= x_a_69 <= 1
 0 <= x_a_70 <= 1
 0 <= x_a_71 <= 1
 0 <= x_a_72 <= 1
 0 <= x_a_73 <= 1
 0 <= x_a_74 <= 1
 0 <= x_a_75 <= 1
 0 <= x_a_76 <= 1
 0 <= x_a_77 <= 1
 0 <= x_a_78 <= 1
 0 <= x_a_79 <= 1
 0 <= x_a_80 <= 1
 0 <= x_a_81 <= 1
 0 <= x_a_82 <= 1
 0 <= x_a_83 <= 1
 0 <= x_a_84 <= 1
 0 <= x_a_85 <= 1
 0 <= x_a_86 <= 1
 0 <= x_a_87 <= 1
 0 <= x_a_88 <= 1
 0 <= x_a_89 <= 1
 0 <= x_a_90 <= 1
 0 <= x_a_91 <= 1
 0 <= x_a_92 <= 1
 0 <= x_a_93 <= 1
 0 <= x_a_94 <= 1
 0 <= x_a_95 <= 1
 0 <= x_a_96 <= 1
 0 <= x_a_97 <= 1
 0 <= x_a_98 <= 1
 0 <= x_a_99 <= 1
 0 <= x_a_100 <= 1
 0 <= x_a_101 <= 1
 0 <= x_a_102 <= 1
 0 <= x_a_103 <= 1
 0 <= x_a_104 <= 1
 0 <= x_a_105 <= 1
 0 <= x_a_106 <= 1
 0 <= x_a_107 <= 1
 0 <= x_a_108 <= 1
 0 <= x_a_109 <= 1
 0 <= x_a_110 <= 1
 0 <= x_a_111 <= 1
 0 <= x_a_112 <= 1
 0 <= x_a_113 <= 1
 0 <= x_a_114 <= 1
 0 <= x_a_115 <= 1
 0 <= x_a_116 <= 1
 0 <= x_a_117 <= 1
 0 <= x_a_118 <= 1
 0 <= x_a_119 <= 1
 0 <= x_a_120 <= 1
 0 <= x_a_121 <= 1
 0 <= x_a_122 <= 1
 0 <= x_a_123 <= 1
 0 <= x_a_124 <= 1
 0 <= x_a_125 <= 1
 0 <= x_a_126 <= 1
 0 <= x_a_127 <= 1
 0 <= x_a_128 <= 1
 0 <= x_a_129 <= 1
 0 <= x_a_130 <= 1
 0 <= x_a_131 <= 1
 0 <= x_a_132 <= 1
 0 <= x_a_133 <= 1
 0 <= x_a_134 <= 1
 0 <= x_a_135 <= 1
 0 <= x_a_136 <= 1
 0 <= x_a_137 <= 1
 0 <= x_a_138 <= 1
 0 <= x_a_139 <= 1
 0 <= x_a_140 <= 1
 0 <= x_a_141 <= 1
 0 <= x_a_142 <= 1
 0 <= x_a_143 <= 1
 0 <= x_a_144 <= 1
 0 <= x_a_145 <= 1
 0 <= x_a_146 <= 1
 0 <= x_a_147 <= 1
 0 <= x_a_148 <= 1
 0 <= x_a_149 <= 1
 0 <= x_a_150 <= 1
 0 <= x_a_151 <= 1
 0 <= x_a_152 <= 1
 0 <= x_a_153 <= 1
 0 <= x_a_154 <= 1
 0 <= x_a_155 <= 1
 0 <= x_a_156 <= 1
 0 <= x_a_157 <= 1
 0 <= x_a_158 <= 1
 0 <= x_a_159 <= 1
 0 <= x_a_160 <= 1
 0 <= x_a_161 <= 1
 0 <= x_a_162 <= 1
 0 <= x_a_163 <= 1
 0 <= x_a_164 <= 1
 0 <= x_a_165 <= 1
 0 <= x_a_166 <= 1
 0 <= x_a_167 <= 1
 0 <= x_a_168 <= 1
 0 <= x_a_169 <= 1
 0 <= x_a_170 <= 1
 0 <= x_a_171 <= 1
 0 <= x_a_172 <= 1
 0 <= x_a_173 <= 1
 0 <= x_a_174 <= 1
 0 <= x_a_175 <= 1
 0 <= x_a_176 <= 1
 0 <= x_a_177 <= 1
 0 <= x_a_178 <= 1
 0 <= x_a_179 <= 1
 0 <= x_a_180 <= 1
 0 <= x_a_181 <= 1
 0 <= x_a_182 <= 1
 0 <= x_a_183 <= 1
 0 <= x_a_184 <= 1
 0 <= x_a_185 <= 1
 0 <= x_a_186 <= 1
 0 <= x_a_187 <= 1
 0 <= x_a_188 <= 1
 0 <= x_a_189 <= 1
 0 <= x_a_190 <= 1
 0 <= x_a_191 <= 1
 0 <= x_a_192 <= 1
 0 <= x_a_193 <= 1
 0 <= x_a_194 <= 1
 0 <= x_a_195 <= 1
 0 <= x_a_196 <= 1
 0 <= x_a_197 <= 1
 0 <= x_a_198 <= 1
 0 <= x_a_199 <= 1
 0 <= x_a_200 <= 1
 0 <= x_a_201 <= 1
 0 <= x_a_202 <= 1
 0 <= x_a_203 <= 1
 0 <= x_a_204 <= 1
 0 <= x_a_205 <= 1
 0 <= x_a_206 <= 1
 0 <= x_a_207 <= 1
 0 <= x_a_208 <= 1
 0 <= x_a_209 <= 1
 0 <= x_a_210 <= 1
 0 <= x_a_211 <= 1
 0 <= x_a_212 <= 1
 0 <= x_a_213 <= 1
 0 <= x_a_214 <= 1
 0 <= x_a_215 <= 1
 0 <= x_a_216 <= 1
 0 <= x_a_217 <= 1
 0 <= x_a_218 <= 1
 0 <= x_a_219 <= 1
 0 <= x_a_220 <= 1
 0 <= x_a_221 <= 1
 0 <= x_a_222 <= 1
 0 <= x_a_223 <= 1
 0 <= x_a_224 <= 1
 0 <= x_a_225 <= 1
 0 <= x_a_226 <= 1
 0 <= x_a_227 <= 1
 0 <= x_a_228 <= 1
 0 <= x_a_229 <= 1
 0 <= x_a_230 <= 1
 0 <= x_a_231 <= 1
 0 <= x_a_232 <= 1
 0 <= x_a_233 <= 1
 0 <= x_a_234 <= 1
 0 <= x_a_235 <= 1
 0 <= x_a_236 <= 1
 0 <= x_a_237 <= 1
 0 <= x_a_238 <= 1
 0 <= x_a_239 <= 1
 0 <= x_a_240 <= 1
 0 <= x_a_241 <= 1
 0 <= x_a_242 <= 1
 0 <= x_a_243 <= 1
 0 <= x_a_244 <= 1
 0 <= x_a_245 <= 1
 0 <= x_a_246 <= 1
 0 <= x_a_247 <= 1
 0 <= x_a_248 <= 1
 0 <= x_a_249 <= 1
 0 <= x_a_250 <= 1
 0 <= x_a_251 <= 1
 0 <= x_a_252 <= 1
 0 <= x_a_253 <= 1
 0 <= x_a_254 <= 1
 0 <= x_a_255 <= 1
 0 <= x_a_256 <= 1
 0 <= x_a_257 <= 1
 0 <= x_a_258 <= 1
 0 <= x_a_259 <= 1
 0 <= x_a_260 <= 1
 0 <= x_a_261 <= 1
 0 <= x_a_262 <= 1
 0 <= x_a_263 <= 1
 0 <= x_a_264 <= 1
 0 <= x_a_265 <= 1
 0 <= x_a_266 <= 1
 0 <= x_a_267 <= 1
 0 <= x_a_268 <= 1
 0 <= x_a_269 <= 1
 0 <= x_a_270 <= 1
 0 <= x_a_271 <= 1
 0 <= x_a_272 <= 1
 0 <= x_a_273 <= 1
 0 <= x_a_274 <= 1
 0 <= x_a_275 <= 1
 0 <= x_a_276 <= 1
 0 <= x_a_277 <= 1
 0 <= x_a_278 <= 1
 0 <= x_a_279 <= 1
 0 <= x_a_280 <= 1
 0 <= x_a_281 <= 1
 0 <= x_a_282 <= 1
 0 <= x_a_283 <= 1
 0 <= x_a_284 <= 1
 0 <= x_a_285 <= 1
 0 <= x_a_286 <= 1
 0 <= x_a_287 <= 1
 0 <= x_a_288 <= 1
 0 <= x_a_289 <= 1
 0 <= x_a_290 <= 1
 0 <= x_a_291 <= 1
 0 <= x_a_292 <= 1
 0 <= x_a_293 <= 1
 0 <= x_a_294 <= 1
 0 <= x_a_295 <= 1
 0 <= x_a_296 <= 1
 0 <= x_a_297 <= 1
 0 <= x_a_298 <= 1
 0 <= x_a_299 <= 1
 0 <= x_a_300 <= 1
 0 <= x_a_301 <= 1
 0 <= x_a_302 <= 1
 0 <= x_a_303 <= 1
 0 <= x_a_304 <= 1
 0 <= x_a_305 <= 1
 0 <= x_a_306 <= 1
 0 <= x_a_307 <= 1
 0 <= x_a_308 <= 1
 0 <= x_a_309 <= 1
 0 <= x_a_310 <= 1
 0 <= x_a_311 <= 1
 0 <= x_a_312 <= 1
 0 <= x_a_313 <= 1
 0 <= x_a_314 <= 1
 0 <= x_a_315 <= 1
 0 <= x_a_316 <= 1
 0 <= x_a_317 <= 1
 0 <= x_a_318 <= 1
 0 <= x_a_319 <= 1
 0 <= x_a_320 <= 1
 0 <= x_a_321 <= 1
 0 <= x_a_322 <= 1
 0 <= x_a_323 <= 1
 0 <= x_a_324 <= 1
 0 <= x_a_325 <= 1
 0 <= x_a_326 <= 1
 0 <= x_a_327 <= 1
 0 <= x_a_328 <= 1
 0 <= x_a_329 <= 1
 0 <= x_a_330 <= 1
 0 <= x_a_331 <= 1
 0 <= x_a_332 <= 1
 0 <= x_a_333 <= 1
 0 <= x_a_334 <= 1
 0 <= x_a_335 <= 1
 0 <= x_a_336 <= 1
 0 <= x_a_337 <= 1
 0 <= x_a_338 <= 1
 0 <= x_a_339 <= 1
 0 <= x_a_340 <= 1
 0 <= x_a_341 <= 1
 0 <= x_a_342 <= 1
 0 <= x_a_343 <= 1
 0 <= x_a_344 <= 1
 0 <= x_a_345 <= 1
 0 <= x_a_346 <= 1
 0 <= x_a_347 <= 1
 0 <= x_a_348 <= 1
 0 <= x_a_349 <= 1
 0 <= x_a_350 <= 1
 0 <= x_a_351 <= 1
 0 <= x_a_352 <= 1
 0 <= x_a_353 <= 1
 0 <= x_a_354 <= 1
 0 <= x_a_355 <= 1
 0 <= x_a_356 <= 1
 0 <= x_a_357 <= 1
 0 <= x_a_358 <= 1
 0 <= x_a_359 <= 1
 0 <= x_a_360 <= 1
 0 <= x_a_361 <= 1
 0 <= x_a_362 <= 1
 0 <= x_a_363 <= 1
 0 <= x_a_364 <= 1
 0 <= x_a_365 <= 1
 0 <= x_a_366 <= 1
 0 <= x_a_367 <= 1
 0 <= x_a_368 <= 1
 0 <= x_a_369 <= 1
 0 <= x_a_370 <= 1
 0 <= x_a_371 <= 1
 0 <= x_a_372 <= 1
 0 <= x_a_373 <= 1
 0 <= x_a_374 <= 1
 0 <= x_a_375 <= 1
 0 <= x_a_376 <= 1
 0 <= x_a_377 <= 1
 0 <= x_a_378 <= 1
 0 <= x_a_379 <= 1
 0 <= x_a_380 <= 1
 0 <= x_a_381 <= 1
 0 <= x_a_382 <= 1
 0 <= x_a_383 <= 1
Binaries
 x_a_0  x_a_1  x_a_2  x_a_3  x_a_4  x_a_5  x_a_6  x_a_7  x_a_8  x_a_9  x_a_10 
 x_a_11  x_a_12  x_a_13  x_a_14  x_a_15  x_a_16  x_a_17  x_a_18  x_a_19 
 x_a_20  x_a_21  x_a_22  x_a_23  x_a_24  x_a_25  x_a_26  x_a_27  x_a_28 
 x_a_29  x_a_30  x_a_31  x_a_32  x_a_33  x_a_34  x_a_35  x_a_36  x_a_37 
 x_a_38  x_a_39  x_a_40  x_a_41  x_a_42  x_a_43  x_a_44  x_a_45  x_a_46 
 x_a_47  x_a_48  x_a_49  x_a_50  x_a_51  x_a_52  x_a_53  x_a_54  x_a_55 
 x_a_56  x_a_57  x_a_58  x_a_59  x_a_60  x_a_61  x_a_62  x_a_63  x_a_64 
 x_a_65  x_a_66  x_a_67  x_a_68  x_a_69  x_a_70  x_a_71  x_a_72  x_a_73 
 x_a_74  x_a_75  x_a_76  x_a_77  x_a_78  x_a_79  x_a_80  x_a_81  x_a_82 
 x_a_83  x_a_84  x_a_85  x_a_86  x_a_87  x_a_88  x_a_89  x_a_90  x_a_91 
 x_a_92  x_a_93  x_a_94  x_a_95  x_a_96  x_a_97  x_a_98  x_a_99  x_a_100 
 x_a_101  x_a_102  x_a_103  x_a_104  x_a_105  x_a_106  x_a_107  x_a_108 
 x_a_109  x_a_110  x_a_111  x_a_112  x_a_113  x_a_114  x_a_115  x_a_116 
 x_a_117  x_a_118  x_a_119  x_a_120  x_a_121  x_a_122  x_a_123  x_a_124 
 x_a_125  x_a_126  x_a_127  x_a_128  x_a_129  x_a_130  x_a_131  x_a_132 
 x_a_133  x_a_134  x_a_135  x_a_136  x_a_137  x_a_138  x_a_139  x_a_140 
 x_a_141  x_a_142  x_a_143  x_a_144  x_a_145  x_a_146  x_a_147  x_a_148 
 x_a_149  x_a_150  x_a_151  x_a_152  x_a_153  x_a_154  x_a_155  x_a_156 
 x_a_157  x_a_158  x_a_159  x_a_160  x_a_161  x_a_162  x_a_163  x_a_164 
 x_a_165  x_a_166  x_a_167  x_a_168  x_a_169  x_a_170  x_a_171  x_a_172 
 x_a_173  x_a_174  x_a_175  x_a_176  x_a_177  x_a_178  x_a_179  x_a_180 
 x_a_181  x_a_182  x_a_183  x_a_184  x_a_185  x_a_186  x_a_187  x_a_188 
 x_a_189  x_a_190  x_a_191  x_a_192  x_a_193  x_a_194  x_a_195  x_a_196 
 x_a_197  x_a_198  x_a_199  x_a_200  x_a_201  x_a_202  x_a_203  x_a_204 
 x_a_205  x_a_206  x_a_207  x_a_208  x_a_209  x_a_210  x_a_211  x_a_212 
 x_a_213  x_a_214  x_a_215  x_a_216  x_a_217  x_a_218  x_a_219  x_a_220 
 x_a_221  x_a_222  x_a_223  x_a_224  x_a_225  x_a_226  x_a_227  x_a_228 
 x_a_229  x_a_230  x_a_231  x_a_232  x_a_233  x_a_234  x_a_235  x_a_236 
 x_a_237  x_a_238  x_a_239  x_a_240  x_a_241  x_a_242  x_a_243  x_a_244 
 x_a_245  x_a_246  x_a_247  x_a_248  x_a_249  x_a_250  x_a_251  x_a_252 
 x_a_253  x_a_254  x_a_255  x_a_256  x_a_257  x_a_258  x_a_259  x_a_260 
 x_a_261  x_a_262  x_a_263  x_a_264  x_a_265  x_a_266  x_a_267  x_a_268 
 x_a_269  x_a_270  x_a_271  x_a_272  x_a_273  x_a_274  x_a_275  x_a_276 
 x_a_277  x_a_278  x_a_279  x_a_280  x_a_281  x_a_282  x_a_283  x_a_284 
 x_a_285  x_a_286  x_a_287  x_a_288  x_a_289  x_a_290  x_a_291  x_a_292 
 x_a_293  x_a_294  x_a_295  x_a_296  x_a_297  x_a_298  x_a_299  x_a_300 
 x_a_301  x_a_302  x_a_303  x_a_304  x_a_305  x_a_306  x_a_307  x_a_308 
 x_a_309  x_a_310  x_a_311  x_a_312  x_a_313  x_a_314  x_a_315  x_a_316 
 x_a_317  x_a_318  x_a_319  x_a_320  x_a_321  x_a_322  x_a_323  x_a_324 
 x_a_325  x_a_326  x_a_327  x_a_328  x_a_329  x_a_330  x_a_331  x_a_332 
 x_a_333  x_a_334  x_a_335  x_a_336  x_a_337  x_a_338  x_a_339  x_a_340 
 x_a_341  x_a_342  x_a_343  x_a_344  x_a_345  x_a_346  x_a_347  x_a_348 
 x_a_349  x_a_350  x_a_351  x_a_352  x_a_353  x_a_354  x_a_355  x_a_356 
 x_a_357  x_a_358  x_a_359  x_a_360  x_a_361  x_a_362  x_a_363  x_a_364 
 x_a_365  x_a_366  x_a_367  x_a_368  x_a_369  x_a_370  x_a_371  x_a_372 
 x_a_373  x_a_374  x_a_375  x_a_376  x_a_377  x_a_378  x_a_379  x_a_380 
 x_a_381  x_a_382  x_a_383 
End
